# Objective value = 28
WA1n 0
WA1p 0
WA2n 0
WA2p 1
WB1n 1
WB1p 0
WC1n 1
WC1p 0
WD1n 0
WD1p 1
WD2n 0
WD2p 1
WE1n 2
WE1p 0
WE2n 1
WE2p 0
WF1n 0
WF1p 4
WF2n 0
WF2p 1
WG1n 0
WG1p 7
WT1n 0
WT1p 2
WT2n 0
WT2p 1
5 7
a 0
b 1
c 0
d 0
e 1
f 1
g 0
h 0
i 1
j 1
k 1
l 1
m 1
